-99 000 000 000 000 -99 000 000 -99 -99 -99 -99 -99 000 000 -99 -99 -99 000 000 -99 000 000 -99 000 000 000 000 -99 -99 -99
-99 -99 000 000 000 000 000 000 -99 -99 -99 -99 -99 000 000 -99 -99 -99 -99 000 000 000 000 000 000 000 000 000 -99 -99 -99
-99 000 000 000 000 000 000 000 000 -99 -99 -99 -99 -99 000 -99 -99 -99 -99 -99 -99 000 000 000 000 000 000 000 000 -99 -99
-99 -99 000 000 000 000 000 -99 -99 -99 -99 -99 -99 -99 -99 -99 -99 -99 -99 -99 -99 -99 000 000 000 000 000 000 -99 -99 -99
000 000 000 000 000 -99 -99 -99 000 000 000 -99 -99 -99 -99 -99 -99 000 -99 -99 000 000 000 000 000 000 000 000 -99 -99 -99
000 000 -99 -99 -99 -99 -99 000 000 000 000 -99 000 -99 -99 -99 -99 000 -99 -99 -99 -99 000 000 000 000 000 -99 -99 -99 -99
000 000 000 -99 -99 -99 000 000 000 000 000 000 -99 000 -99 -99 -99 -99 -99 -99 000 000 000 000 000 000 000 -99 -99 -99 -99
-99 -99 -99 -99 -99 -99 -99 000 000 000 000 -99 000 000 -99 -99 -99 -99 -99 -99 000 000 -99 000 000 000 000 -99 -99 -99 -99
-99 -99 000 -99 -99 -99 -99 -99 -99 000 000 000 -99 -99 -99 -99 -99 000 000 -99 000 -99 000 000 000 000 000 000 -99 -99 -99
-99 000 000 000 000 -99 -99 -99 -99 -99 000 000 000 -99 000 000 -99 000 000 000 000 000 -99 000 000 -99 000 000 000 000 -99
000 000 -99 000 -99 -99 -99 -99 000 -99 000 000 -99 -99 000 000 -99 000 000 000 000 000 -99 -99 000 -99 000 000 000 000 -99
000 000 -99 -99 000 000 000 000 000 000 -99 -99 000 000 000 000 -99 000 000 000 000 -99 -99 -99 000 000 000 000 000 000 -99
000 000 000 000 000 000 000 000 000 000 000 -99 000 -99 -99 -99 -99 000 000 000 -99 -99 -99 000 000 000 000 000 000 000 -99
000 000 000 000 000 000 000 000 000 000 000 000 000 000 -99 -99 000 000 000 000 000 -99 -99 000 000 000 000 000 000 000 -99
000 -99 000 000 000 000 000 000 000 -99 000 000 000 000 -99 -99 000 000 000 000 000 -99 -99 -99 000 000 000 000 000 000 000
000 -99 000 000 000 000 000 000 000 -99 -99 -99 000 -99 -99 -99 000 000 000 000 -99 -99 -99 -99 000 000 000 000 000 000 000
-99 -99 -99 -99 -99 000 000 000 000 -99 -99 -99 -99 -99 -99 -99 000 000 000 -99 -99 -99 000 -99 000 -99 -99 000 000 000 000
000 -99 -99 -99 -99 000 000 000 000 000 -99 -99 -99 -99 -99 -99 000 000 000 -99 -99 -99 000 000 000 -99 -99 000 000 000 000
000 000 000 -99 -99 -99 000 000 000 000 -99 -99 -99 -99 000 000 000 000 000 -99 -99 000 000 000 000 -99 000 000 000 000 -99
000 000 000 000 -99 -99 000 000 000 000 000 000 -99 000 000 000 000 000 000 000 000 000 000 000 -99 -99 000 -99 000 000 -99
000 000 000 000 000 000 -99 000 000 000 000 -99 -99 000 000 000 000 000 000 000 000 000 000 -99 -99 000 000 -99 -99 -99 -99
000 000 000 000 000 000 000 000 000 000 -99 -99 -99 000 000 000 000 000 000 000 000 000 000 -99 -99 -99 -99 -99 -99 -99 -99
000 000 000 000 000 000 000 000 000 000 -99 -99 -99 000 000 000 000 000 000 000 000 000 000 -99 -99 -99 -99 -99 -99 -99 -99
000 000 000 000 000 000 000 000 000 -99 -99 -99 000 000 000 000 000 000 000 000 000 000 000 -99 -99 -99 -99 -99 -99 -99 -99
000 000 000 000 000 000 000 000 000 000 -99 -99 -99 000 000 000 000 000 000 000 000 000 000 -99 -99 -99 -99 -99 -99 -99 -99
000 000 000 000 000 000 000 000 000 000 000 -99 -99 000 000 000 000 000 000 000 000 -99 -99 -99 -99 -99 -99 -99 -99 -99 000
000 000 000 000 000 000 000 000 000 000 000 -99 -99 000 000 000 000 000 000 000 000 000 -99 -99 -99 -99 -99 -99 -99 000 000
000 000 000 000 000 000 000 000 000 000 -99 -99 -99 000 000 -99 000 000 000 000 000 000 -99 -99 -99 -99 -99 -99 -99 000 000
000 000 000 000 000 000 000 000 000 000 -99 -99 -99 000 000 000 000 000 000 000 000 000 -99 -99 -99 -99 -99 -99 -99 000 000
000 000 000 -99 000 000 000 000 000 000 -99 -99 000 000 000 000 000 000 000 000 -99 000 -99 -99 -99 000 -99 -99 -99 000 000
-99 000 000 000 000 000 000 000 000 -99 -99 -99 -99 000 000 000 000 000 000 000 -99 000 -99 000 000 000 000 -99 -99 -99 -99
-99 000 000 000 000 000 000 000 000 -99 -99 -99 -99 000 000 000 000 000 000 -99 000 000 000 000 000 000 000 -99 000 000 -99
-99 000 000 000 000 000 000 000 000 -99 -99 -99 -99 000 000 000 000 000 000 -99 -99 000 000 000 000 000 000 000 000 000 000
000 000 000 000 000 000 000 000 -99 000 -99 -99 -99 000 000 000 000 000 000 -99 000 000 000 000 -99 000 000 000 000 000 000
000 000 000 000 000 000 000 000 000 000 000 -99 -99 000 000 000 000 000 -99 000 000 000 000 000 000 000 000 000 000 000 000
000 000 000 000 000 000 000 000 000 000 000 -99 -99 000 000 000 000 000 000 000 000 000 -99 000 000 -99 000 000 000 000 000
000 000 000 000 000 -99 -99 -99 000 000 000 -99 -99 000 000 000 000 000 000 000 000 000 -99 000 000 000 000 000 000 000 000
000 000 -99 -99 000 -99 -99 -99 -99 000 -99 -99 000 000 000 000 000 000 000 000 -99 -99 -99 000 000 000 000 000 000 -99 000
000 000 -99 -99 -99 -99 -99 -99 -99 -99 -99 -99 000 000 000 000 000 000 000 -99 -99 -99 000 000 000 -99 -99 000 000 -99 -99
000 -99 -99 000 -99 -99 -99 -99 -99 -99 -99 000 000 000 000 000 000 -99 -99 -99 000 -99 000 000 -99 -99 -99 -99 000 -99 -99
000 000 000 -99 -99 -99 -99 -99 -99 -99 -99 000 000 000 000 000 -99 -99 -99 -99 000 -99 000 000 -99 -99 -99 -99 -99 -99 -99
000 000 -99 -99 000 000 000 -99 -99 -99 000 000 000 000 000 000 -99 000 -99 000 000 -99 000 000 000 -99 -99 -99 -99 000 -99
000 -99 -99 -99 -99 000 -99 -99 -99 -99 000 000 000 000 -99 000 000 000 000 000 000 -99 -99 000 000 000 -99 -99 -99 000 000
-99 -99 -99 -99 -99 -99 -99 -99 -99 -99 -99 000 000 000 000 000 000 000 000 000 000 -99 002 003 000 000 -99 -99 000 000 000
000 -99 -99 -99 -99 -99 000 -99 -99 -99 -99 000 000 000 000 000 000 000 000 000 000 -99 005 001 000 000 -99 000 000 -99 -99
000 -99 -99 -99 -99 000 000 000 -99 -99 -99 000 000 000 000 000 000 000 000 000 -99 -99 001 000 000 000 000 000 -99 -99 -99
-99 -99 -99 -99 -99 000 -99 -99 -99 -99 000 000 000 -99 000 -99 -99 000 000 000 -99 000 000 000 000 000 000 000 -99 -99 -99
-99 -99 -99 -99 -99 -99 -99 -99 -99 -99 -99 -99 -99 -99 -99 -99 -99 000 000 -99 -99 000 000 000 -99 000 000 000 -99 -99 -99
-99 -99 -99 -99 -99 -99 -99 -99 -99 -99 -99 -99 -99 -99 -99 -99 -99 000 -99 -99 -99 000 000 -99 -99 000 000 000 -99 -99 -99
-99 -99 -99 -99 -99 -99 -99 -99 -99 000 -99 -99 -99 -99 -99 -99 -99 000 -99 -99 -99 000 000 -99 -99 000 000 000 -99 -99 -99
-99 -99 -99 000 -99 -99 -99 -99 000 000 -99 -99 -99 -99 -99 -99 000 -99 000 000 000 000 -99 -99 -99 -99 000 -99 -99 -99 -99
-99 -99 -99 000 -99 -99 -99 -99 000 -99 -99 -99 -99 -99 -99 000 -99 -99 000 000 000 -99 -99 -99 -99 -99 -99 -99 -99 -99 -99
-99 -99 000 -99 -99 -99 -99 -99 -99 -99 -99 -99 -99 -99 -99 -99 -99 000 000 000 -99 -99 -99 -99 -99 -99 -99 -99 -99 -99 -99
-99 -99 -99 -99 -99 -99 -99 -99 -99 -99 -99 -99 -99 -99 -99 -99 -99 000 000 -99 -99 -99 -99 -99 -99 -99 -99 -99 -99 -99 -99
-99 -99 -99 -99 -99 -99 -99 -99 -99 -99 -99 -99 -99 -99 -99 -99 -99 -99 -99 -99 -99 -99 -99 -99 -99 -99 -99 -99 -99 -99 -99
